500
    1   937   937
    2   771   771
    3   253   253
    4   876   876
    5   675   675
    6   877   877
    7   772   772
    8   705   705
    9   165   165
   10   991   991
   11   219   219
   12   782   782
   13   254   254
   14   271   271
   15   957   957
   16   633   633
   17   326   326
   18   460   460
   19   867   867
   20   832   832
   21   357   357
   22   148   148
   23    68    68
   24   336   336
   25    53    53
   26   680   680
   27   317   317
   28   559   559
   29    94    94
   30   268   268
   31   214   214
   32   449   449
   33   958   958
   34   179   179
   35   593   593
   36    47    47
   37   938   938
   38   896   896
   39   815   815
   40   951   951
   41   470   470
   42   543   543
   43   545   545
   44   532   532
   45   205   205
   46   689   689
   47   232   232
   48   173   173
   49   638   638
   50   390   390
   51   921   921
   52   180   180
   53    35    35
   54   861   861
   55   665   665
   56   837   837
   57   183   183
   58   623   623
   59    16    16
   60    62    62
   61   803   803
   62   570   570
   63   829   829
   64    45    45
   65   477   477
   66   817   817
   67   598   598
   68   300   300
   69   301   301
   70   601   601
   71   210   210
   72    42    42
   73    29    29
   74   286   286
   75   614   614
   76   348   348
   77   821   821
   78   908   908
   79   856   856
   80   241   241
   81   576   576
   82    73    73
   83   195   195
   84   115   115
   85   831   831
   86   743   743
   87   543   543
   88   344   344
   89   960   960
   90   104   104
   91   756   756
   92    48    48
   93   979   979
   94   586   586
   95   155   155
   96   530   530
   97   488   488
   98   266   266
   99   633   633
  100   367   367
  101   272   272
  102   364   364
  103   313   313
  104   592   592
  105   750   750
  106   928   928
  107    61    61
  108   266   266
  109   154   154
  110   937   937
  111   337   337
  112   823   823
  113   234   234
  114   248   248
  115   604   604
  116   961   961
  117   453   453
  118   709   709
  119   931   931
  120   144   144
  121   974   974
  122   645   645
  123   180   180
  124   771   771
  125   513   513
  126   703   703
  127   948   948
  128    27    27
  129   901   901
  130   304   304
  131   533   533
  132   498   498
  133   342   342
  134   510   510
  135   936   936
  136   363   363
  137   669   669
  138   394   394
  139   787   787
  140   259   259
  141   903   903
  142   158   158
  143   175   175
  144   828   828
  145   351   351
  146   542   542
  147   408   408
  148   371   371
  149   281   281
  150   996   996
  151   370   370
  152    47    47
  153   980   980
  154   947   947
  155   404   404
  156   586   586
  157   754   754
  158   965   965
  159   612   612
  160   285   285
  161   927   927
  162  1000  1000
  163   935   935
  164   163   163
  165    28    28
  166   619   619
  167   627   627
  168   975   975
  169   599   599
  170   302   302
  171   187   187
  172   706   706
  173    89    89
  174   111   111
  175   669   669
  176   420   420
  177   523   523
  178    25    25
  179   124   124
  180   220   220
  181   398   398
  182   527   527
  183   782   782
  184   795   795
  185   774   774
  186   263   263
  187   897   897
  188   418   418
  189   337   337
  190    81    81
  191   494   494
  192   308   308
  193   866   866
  194   590   590
  195   530   530
  196   965   965
  197   893   893
  198   886   886
  199   109   109
  200   274   274
  201   886   886
  202   954   954
  203   641   641
  204   411   411
  205   723   723
  206   824   824
  207   809   809
  208    83    83
  209   602   602
  210   876   876
  211   483   483
  212   952   952
  213   512   512
  214   739   739
  215   588   588
  216   526   526
  217   120   120
  218   939   939
  219   182   182
  220   222   222
  221   364   364
  222   591   591
  223   392   392
  224   971   971
  225   618   618
  226    79    79
  227   882   882
  228   805   805
  229   294   294
  230   379   379
  231   452   452
  232   542   542
  233   616   616
  234    40    40
  235   434   434
  236    10    10
  237   722   722
  238    83    83
  239    70    70
  240   308   308
  241   657   657
  242   339   339
  243   426   426
  244   676   676
  245   861   861
  246   827   827
  247   504   504
  248   124   124
  249   502   502
  250   109   109
  251   704   704
  252   842   842
  253   197   197
  254    90    90
  255   837   837
  256   527   527
  257   508   508
  258    29    29
  259    28    28
  260   142   142
  261    75    75
  262   392   392
  263    98    98
  264   944   944
  265   712   712
  266   901   901
  267   297   297
  268   948   948
  269   146   146
  270   327   327
  271   551   551
  272   605   605
  273    34    34
  274   554   554
  275   212   212
  276   707   707
  277   559   559
  278   636   636
  279   837   837
  280   131   131
  281   124   124
  282   807   807
  283   746   746
  284   922   922
  285   552   552
  286   815   815
  287    64    64
  288   421   421
  289   162   162
  290   221   221
  291   227   227
  292   420   420
  293   551   551
  294   502   502
  295    28    28
  296   788   788
  297   546   546
  298   718   718
  299    75    75
  300   276   276
  301   358   358
  302   574   574
  303   762   762
  304   808   808
  305   347   347
  306   237   237
  307   485   485
  308   729   729
  309   939   939
  310   442   442
  311   713   713
  312   125   125
  313   455   455
  314   663   663
  315    32    32
  316   426   426
  317   499   499
  318   865   865
  319   454   454
  320   878   878
  321   826   826
  322    68    68
  323   708   708
  324   707   707
  325   119   119
  326   867   867
  327   375   375
  328   582   582
  329   514   514
  330   718   718
  331   883   883
  332    30    30
  333    20    20
  334   316   316
  335   289   289
  336   353   353
  337   351   351
  338   599   599
  339   138   138
  340   450   450
  341   532   532
  342   136   136
  343   463   463
  344   775   775
  345   458   458
  346   383   383
  347    31    31
  348   807   807
  349   888   888
  350   412   412
  351   876   876
  352   713   713
  353   959   959
  354    76    76
  355   898   898
  356   271   271
  357   367   367
  358   131   131
  359   805   805
  360    66    66
  361   924   924
  362    88    88
  363    38    38
  364   223   223
  365   101   101
  366   910   910
  367   961   961
  368   478   478
  369   762   762
  370   550   550
  371   222   222
  372    43    43
  373   655   655
  374   938   938
  375   386   386
  376   733   733
  377   177   177
  378   741   741
  379   522   522
  380   124   124
  381   147   147
  382   118   118
  383   156   156
  384   161   161
  385   773   773
  386   843   843
  387   929   929
  388   389   389
  389   898   898
  390   449   449
  391   715   715
  392   411   411
  393   973   973
  394   746   746
  395   431   431
  396   929   929
  397   256   256
  398   584   584
  399   750   750
  400   257   257
  401   888   888
  402   133   133
  403   390   390
  404   503   503
  405   320   320
  406   893   893
  407   504   504
  408   795   795
  409   504   504
  410   787   787
  411   710   710
  412   710   710
  413   289   289
  414   936   936
  415   843   843
  416   481   481
  417   840   840
  418   243   243
  419   814   814
  420   520   520
  421   797   797
  422   946   946
  423   701   701
  424   638   638
  425   328   328
  426   422   422
  427   938   938
  428   474   474
  429   783   783
  430   981   981
  431   588   588
  432   568   568
  433   621   621
  434   680   680
  435   453   453
  436   898   898
  437   402   402
  438   581   581
  439   443   443
  440   372   372
  441   875   875
  442   487   487
  443   558   558
  444   352   352
  445   670   670
  446   273   273
  447   589   589
  448    70    70
  449   629   629
  450   770   770
  451   133   133
  452   133   133
  453   444   444
  454   961   961
  455   526   526
  456   359   359
  457   128   128
  458   482   482
  459   700   700
  460   326   326
  461   782   782
  462   153   153
  463   503   503
  464   556   556
  465   278   278
  466   795   795
  467   951   951
  468   577   577
  469   698   698
  470   213   213
  471   961   961
  472   510   510
  473   110   110
  474   276   276
  475   110   110
  476   254   254
  477   478   478
  478   939   939
  479   358   358
  480   660   660
  481   846   846
  482   834   834
  483   968   968
  484   526   526
  485   410   410
  486   795   795
  487   204   204
  488   473   473
  489   515   515
  490   121   121
  491   928   928
  492   367   367
  493   739   739
  494   673   673
  495   771   771
  496   132   132
  497   293   293
  498   802   802
  499   129   129
  500   399   399
170575
